;; sequence(s): A73591
;; terms: 2 3 6 17 66 327 1958 13701 109602 986411 9864102 108505113 1302061346 16926797487 236975164806 3554627472077 56874039553218 966858672404691 17403456103284422 330665665962404001
;; small program: 1 + loop(1 + (x * y), x, 1)
;; fast program: 2 + (loop(1 + (x * y), x - 1, 1) * x)
(set-logic UFNIA)
(declare-fun f0 (Int Int) Int)
(declare-fun g0 (Int) Int)
(declare-fun h0 () Int)
(declare-fun u0 (Int Int) Int)
(declare-fun v0 (Int) Int)
(declare-fun small (Int) Int)
(declare-fun f1 (Int Int) Int)
(declare-fun g1 (Int) Int)
(declare-fun h1 () Int)
(declare-fun u1 (Int Int) Int)
(declare-fun v1 (Int) Int)
(declare-fun fast (Int) Int)
(assert (forall ((x Int) (y Int)) (= (f0 x y) (+ 1 (* x y)))))
(assert (forall ((x Int)) (= (g0 x) x)))
(assert (= h0 1))
(assert (forall ((x Int) (y Int)) (= (u0 x y) (ite (<= x 0) y (f0 (u0 (- x 1) y) x)))))
(assert (forall ((x Int)) (= (v0 x) (u0 (g0 x) h0))))
(assert (forall ((x Int)) (= (small x) (+ 1 (v0 x)))))
(assert (forall ((x Int) (y Int)) (= (f1 x y) (+ 1 (* x y)))))
(assert (forall ((x Int)) (= (g1 x) (- x 1))))
(assert (= h1 1))
(assert (forall ((x Int) (y Int)) (= (u1 x y) (ite (<= x 0) y (f1 (u1 (- x 1) y) x)))))
(assert (forall ((x Int)) (= (v1 x) (u1 (g1 x) h1))))
(assert (forall ((x Int)) (= (fast x) (+ 2 (* (v1 x) x)))))
(assert (exists ((c Int)) (and (>= c 0) (not (= (small c) (fast c))))))
(check-sat)
